(set-logic HORN)
(set-info :source |
    Benchmark: C_VC
    Output by Princess (http://www.philipp.ruemmer.org/princess.shtml)
|)
(set-info :status sat)
(declare-heap Heap Addr HeapObject
 defObj
 ((HeapObject 0)) (
  (
   (O_Int (getInt Int))
   (O_UInt (getUInt Int))
   (O_Addr (getAddr Addr))
   (defObj)
  )
))
(declare-fun inv_main17 (Heap AddrRange Int AddrRange Int Int Int Int Int) Bool)
(declare-fun inv_main18 (Heap AddrRange Int AddrRange Int Int Int Int Int) Bool)
(declare-fun inv_main19 (Heap AddrRange Int AddrRange Int Int Int Int Int) Bool)
(declare-fun inv_main23 (Heap AddrRange Int AddrRange Int Int Int Int Int Int) Bool)
(declare-fun inv_main24 (Heap AddrRange Int AddrRange Int Int Int Int Int) Bool)
(declare-fun inv_main26 (Heap AddrRange Int AddrRange Int Int Int Int Int) Bool)
(declare-fun inv_main27 (Heap AddrRange Int AddrRange Int Int Int Int Int Int) Bool)
(declare-fun inv_main29 (Heap AddrRange Int AddrRange Int) Bool)
(declare-fun inv_main3 (Heap AddrRange Int AddrRange Int) Bool)
(declare-fun inv_main5 (Heap AddrRange Int AddrRange Int) Bool)
(declare-fun inv_main6 (Heap AddrRange Int AddrRange Int) Bool)
(assert (forall ((var0 Int) (var1 Int) (var2 Int) (var3 AddrRange) (var4 Heap)) (or (not (and (and (= var4 (newBatchHeap (batchAlloc emptyHeap (O_Int 0) 5))) (= var3 (newAddrRange (batchAlloc emptyHeap (O_Int 0) 5)))) (= var2 5))) (inv_main3 (newBatchHeap (batchAlloc (newBatchHeap (batchAlloc emptyHeap (O_Int 0) 5)) (O_Int var1) 5)) var3 var2 (newAddrRange (batchAlloc (newBatchHeap (batchAlloc emptyHeap (O_Int 0) 5)) (O_Int var1) 5)) var0))))
(assert (forall ((var0 Int) (var1 Int) (var2 Int) (var3 Int) (var4 Int) (var5 AddrRange) (var6 Int) (var7 AddrRange) (var8 Heap)) (or (not (and (inv_main24 var8 var7 var6 var5 var4 var3 var2 var1 var0) (is-O_Int (read var8 (nthAddrRange var5 var2))))) (inv_main27 var8 var7 var6 var5 var4 var3 var2 var1 var0 (getInt (read var8 (nthAddrRange var5 var2)))))))
(assert (forall ((var0 Int) (var1 Int) (var2 Int) (var3 Int) (var4 Int) (var5 Int) (var6 AddrRange) (var7 Int) (var8 AddrRange) (var9 Heap) (var10 Int) (var11 Int) (var12 Int) (var13 Int) (var14 Int) (var15 AddrRange) (var16 Int) (var17 AddrRange) (var18 Heap)) (or (not (and (inv_main17 var18 var17 var16 var15 var14 var13 var12 var11 var10) (and (is-O_Int (read var18 (nthAddrRange var15 var13))) (and (and (and (and (and (and (and (and (and (= var9 var18) (= var8 var17)) (= var7 var16)) (= var6 var15)) (= var5 var14)) (= var4 var13)) (= var3 var12)) (= var2 var11)) (= var1 var10)) (= var0 (getInt (read var18 (nthAddrRange var15 var13)))))))) (inv_main24 var9 var8 var7 var6 var5 var4 var3 var2 var0))))
(assert (forall ((var0 Int) (var1 AddrRange) (var2 Int) (var3 AddrRange) (var4 Heap)) (or (not (and (inv_main5 var4 var3 var2 var1 var0) (<= 0 var0))) (inv_main6 var4 var3 var2 var1 var0))))
(assert (forall ((var0 Int) (var1 Int) (var2 Int) (var3 Int) (var4 AddrRange) (var5 AddrRange) (var6 Heap) (var7 Int) (var8 Int) (var9 Int) (var10 Int) (var11 Int) (var12 Int) (var13 Int) (var14 AddrRange) (var15 Int) (var16 AddrRange) (var17 Heap)) (or (not (and (inv_main26 var17 var16 var15 var14 var13 var12 var11 var10 var9) (and (<= 0 (+ (+ var8 (* (- 1) (+ var7 1))) (- 1))) (and (and (is-O_Int (read var17 (nthAddrRange var14 var11))) (is-O_Int (read var17 (nthAddrRange var14 var11)))) (and (and (and (and (and (and (and (and (= var6 (write var17 (nthAddrRange var14 var11) (O_Int var9))) (= var5 var16)) (= var8 var15)) (= var4 var14)) (= var3 var13)) (= var7 var12)) (= var2 var11)) (= var1 var10)) (= var0 var9)))))) (inv_main18 var6 var5 var8 var4 var3 (+ var7 1) (+ var7 1) (+ (+ var7 1) 1) var0))))
(assert (forall ((var0 Int) (var1 Int) (var2 Int) (var3 Int) (var4 Int) (var5 Int) (var6 AddrRange) (var7 Int) (var8 AddrRange) (var9 Heap)) (or (not (and (inv_main23 var9 var8 var7 var6 var5 var4 var3 var2 var1 var0) (and (is-O_Int (read var9 (nthAddrRange var6 var3))) (<= 0 (+ (+ (getInt (read var9 (nthAddrRange var6 var3))) (* (- 1) var0)) (- 1)))))) (inv_main18 var9 var8 var7 var6 var5 var4 var2 (+ var2 1) var1))))
(assert (forall ((var0 Int) (var1 Int) (var2 Int) (var3 Int) (var4 Int) (var5 Int) (var6 AddrRange) (var7 Int) (var8 AddrRange) (var9 Heap)) (or (not (and (inv_main23 var9 var8 var7 var6 var5 var4 var3 var2 var1 var0) (and (is-O_Int (read var9 (nthAddrRange var6 var3))) (not (<= 0 (+ (+ (getInt (read var9 (nthAddrRange var6 var3))) (* (- 1) var0)) (- 1))))))) (inv_main18 var9 var8 var7 var6 var5 var4 var3 (+ var2 1) var1))))
(assert (forall ((var0 Int) (var1 Int) (var2 AddrRange) (var3 Int) (var4 AddrRange) (var5 Heap)) (or (not (and (inv_main5 var5 var4 var3 var2 var1) (and (<= 0 (+ var3 (- 1))) (not (<= 0 var1))))) (inv_main18 var5 var4 var3 var2 var1 0 0 1 var0))))
(assert (forall ((var0 Int) (var1 Int) (var2 Int) (var3 Int) (var4 Int) (var5 AddrRange) (var6 Int) (var7 AddrRange) (var8 Heap)) (or (not (and (inv_main18 var8 var7 var6 var5 var4 var3 var2 var1 var0) (not (<= 0 (+ (+ var6 (* (- 1) var1)) (- 1)))))) (inv_main17 var8 var7 var6 var5 var4 var3 var2 var1 var0))))
(assert (forall ((var0 Int) (var1 Int) (var2 Int) (var3 Int) (var4 AddrRange) (var5 AddrRange) (var6 Heap) (var7 Int) (var8 Int) (var9 Int) (var10 Int) (var11 Int) (var12 Int) (var13 Int) (var14 AddrRange) (var15 Int) (var16 AddrRange) (var17 Heap)) (or (not (and (inv_main26 var17 var16 var15 var14 var13 var12 var11 var10 var9) (and (not (<= 0 (+ (+ var8 (* (- 1) (+ var7 1))) (- 1)))) (and (and (is-O_Int (read var17 (nthAddrRange var14 var11))) (is-O_Int (read var17 (nthAddrRange var14 var11)))) (and (and (and (and (and (and (and (and (= var6 (write var17 (nthAddrRange var14 var11) (O_Int var9))) (= var5 var16)) (= var8 var15)) (= var4 var14)) (= var3 var13)) (= var7 var12)) (= var2 var11)) (= var1 var10)) (= var0 var9)))))) (inv_main29 var6 var5 var8 var4 0))))
(assert (forall ((var0 Int) (var1 AddrRange) (var2 Int) (var3 AddrRange) (var4 Heap)) (or (not (and (inv_main5 var4 var3 var2 var1 var0) (and (not (<= 0 (+ var2 (- 1)))) (not (<= 0 var0))))) (inv_main29 var4 var3 var2 var1 0))))
(assert (forall ((var0 Int) (var1 AddrRange) (var2 Int) (var3 AddrRange) (var4 Heap)) (or (not (and (inv_main29 var4 var3 var2 var1 var0) (and (<= 0 (+ (+ 5 (* (- 1) (+ var0 1))) (- 1))) (is-O_Int (read var4 (nthAddrRange var1 var0)))))) (inv_main29 var4 var3 var2 var1 (+ var0 1)))))
(assert (forall ((var0 Int) (var1 Int) (var2 Int) (var3 Int) (var4 Int) (var5 Int) (var6 AddrRange) (var7 Int) (var8 AddrRange) (var9 Heap)) (or (not (and (inv_main27 var9 var8 var7 var6 var5 var4 var3 var2 var1 var0) (and (is-O_Int (read var9 (nthAddrRange var6 var4))) (is-O_Int (read var9 (nthAddrRange var6 var4)))))) (inv_main26 (write var9 (nthAddrRange var6 var4) (O_Int var0)) var8 var7 var6 var5 var4 var3 var2 var1))))
(assert (forall ((var0 Int) (var1 AddrRange) (var2 Int) (var3 AddrRange) (var4 Heap)) (or (not (inv_main3 var4 var3 var2 var1 var0)) (inv_main5 var4 var3 var2 var1 4))))
(assert (forall ((var0 Int) (var1 AddrRange) (var2 Int) (var3 AddrRange) (var4 Heap) (var5 Int) (var6 AddrRange) (var7 Int) (var8 AddrRange) (var9 Heap)) (or (not (and (inv_main6 var9 var8 var7 var6 var5) (and (and (is-O_Int (read var9 (nthAddrRange var6 var5))) (is-O_Int (read var9 (nthAddrRange var6 var5)))) (and (and (and (and (= var4 (write var9 (nthAddrRange var6 var5) (O_Int var5))) (= var3 var8)) (= var2 var7)) (= var1 var6)) (= var0 var5))))) (inv_main5 var4 var3 var2 var1 (+ var0 (- 1))))))
(assert (forall ((var0 Int) (var1 Int) (var2 Int) (var3 Int) (var4 Int) (var5 AddrRange) (var6 Int) (var7 AddrRange) (var8 Heap)) (or (not (and (inv_main18 var8 var7 var6 var5 var4 var3 var2 var1 var0) (<= 0 (+ (+ var6 (* (- 1) var1)) (- 1))))) (inv_main19 var8 var7 var6 var5 var4 var3 var2 var1 var0))))
(assert (forall ((var0 Int) (var1 Int) (var2 Int) (var3 Int) (var4 Int) (var5 AddrRange) (var6 Int) (var7 AddrRange) (var8 Heap)) (or (not (and (inv_main19 var8 var7 var6 var5 var4 var3 var2 var1 var0) (is-O_Int (read var8 (nthAddrRange var5 var1))))) (inv_main23 var8 var7 var6 var5 var4 var3 var2 var1 var0 (getInt (read var8 (nthAddrRange var5 var1)))))))
(assert (forall ((var0 Int) (var1 AddrRange) (var2 Int) (var3 AddrRange) (var4 Heap)) (not (and (inv_main6 var4 var3 var2 var1 var0) (not (is-O_Int (read var4 (nthAddrRange var1 var0))))))))
(assert (forall ((var0 Int) (var1 AddrRange) (var2 Int) (var3 AddrRange) (var4 Heap)) (not (and (inv_main6 var4 var3 var2 var1 var0) (and (is-O_Int (read var4 (nthAddrRange var1 var0))) (not (within var1 (nthAddrRange var1 var0))))))))
(assert (forall ((var0 Int) (var1 AddrRange) (var2 Int) (var3 AddrRange) (var4 Heap)) (not (and (inv_main6 var4 var3 var2 var1 var0) (and (is-O_Int (read var4 (nthAddrRange var1 var0))) (not (is-O_Int (read var4 (nthAddrRange var1 var0)))))))))
(assert (forall ((var0 Int) (var1 Int) (var2 Int) (var3 Int) (var4 Int) (var5 AddrRange) (var6 Int) (var7 AddrRange) (var8 Heap)) (not (and (inv_main19 var8 var7 var6 var5 var4 var3 var2 var1 var0) (not (is-O_Int (read var8 (nthAddrRange var5 var1))))))))
(assert (forall ((var0 Int) (var1 Int) (var2 Int) (var3 Int) (var4 Int) (var5 AddrRange) (var6 Int) (var7 AddrRange) (var8 Heap)) (not (and (inv_main19 var8 var7 var6 var5 var4 var3 var2 var1 var0) (and (is-O_Int (read var8 (nthAddrRange var5 var1))) (not (within var5 (nthAddrRange var5 var1))))))))
(assert (forall ((var0 Int) (var1 Int) (var2 Int) (var3 Int) (var4 Int) (var5 Int) (var6 AddrRange) (var7 Int) (var8 AddrRange) (var9 Heap)) (not (and (inv_main23 var9 var8 var7 var6 var5 var4 var3 var2 var1 var0) (not (is-O_Int (read var9 (nthAddrRange var6 var3))))))))
(assert (forall ((var0 Int) (var1 Int) (var2 Int) (var3 Int) (var4 Int) (var5 Int) (var6 AddrRange) (var7 Int) (var8 AddrRange) (var9 Heap)) (not (and (inv_main23 var9 var8 var7 var6 var5 var4 var3 var2 var1 var0) (and (is-O_Int (read var9 (nthAddrRange var6 var3))) (not (within var6 (nthAddrRange var6 var3))))))))
(assert (forall ((var0 Int) (var1 Int) (var2 Int) (var3 Int) (var4 Int) (var5 AddrRange) (var6 Int) (var7 AddrRange) (var8 Heap)) (not (and (inv_main17 var8 var7 var6 var5 var4 var3 var2 var1 var0) (not (is-O_Int (read var8 (nthAddrRange var5 var3))))))))
(assert (forall ((var0 Int) (var1 Int) (var2 Int) (var3 Int) (var4 Int) (var5 AddrRange) (var6 Int) (var7 AddrRange) (var8 Heap)) (not (and (inv_main17 var8 var7 var6 var5 var4 var3 var2 var1 var0) (and (is-O_Int (read var8 (nthAddrRange var5 var3))) (not (within var5 (nthAddrRange var5 var3))))))))
(assert (forall ((var0 Int) (var1 Int) (var2 Int) (var3 Int) (var4 Int) (var5 AddrRange) (var6 Int) (var7 AddrRange) (var8 Heap)) (not (and (inv_main24 var8 var7 var6 var5 var4 var3 var2 var1 var0) (not (is-O_Int (read var8 (nthAddrRange var5 var2))))))))
(assert (forall ((var0 Int) (var1 Int) (var2 Int) (var3 Int) (var4 Int) (var5 AddrRange) (var6 Int) (var7 AddrRange) (var8 Heap)) (not (and (inv_main24 var8 var7 var6 var5 var4 var3 var2 var1 var0) (and (is-O_Int (read var8 (nthAddrRange var5 var2))) (not (within var5 (nthAddrRange var5 var2))))))))
(assert (forall ((var0 Int) (var1 Int) (var2 Int) (var3 Int) (var4 Int) (var5 Int) (var6 AddrRange) (var7 Int) (var8 AddrRange) (var9 Heap)) (not (and (inv_main27 var9 var8 var7 var6 var5 var4 var3 var2 var1 var0) (not (is-O_Int (read var9 (nthAddrRange var6 var4))))))))
(assert (forall ((var0 Int) (var1 Int) (var2 Int) (var3 Int) (var4 Int) (var5 Int) (var6 AddrRange) (var7 Int) (var8 AddrRange) (var9 Heap)) (not (and (inv_main27 var9 var8 var7 var6 var5 var4 var3 var2 var1 var0) (and (is-O_Int (read var9 (nthAddrRange var6 var4))) (not (within var6 (nthAddrRange var6 var4))))))))
(assert (forall ((var0 Int) (var1 Int) (var2 Int) (var3 Int) (var4 Int) (var5 Int) (var6 AddrRange) (var7 Int) (var8 AddrRange) (var9 Heap)) (not (and (inv_main27 var9 var8 var7 var6 var5 var4 var3 var2 var1 var0) (and (is-O_Int (read var9 (nthAddrRange var6 var4))) (not (is-O_Int (read var9 (nthAddrRange var6 var4)))))))))
(assert (forall ((var0 Int) (var1 Int) (var2 Int) (var3 Int) (var4 Int) (var5 AddrRange) (var6 Int) (var7 AddrRange) (var8 Heap)) (not (and (inv_main26 var8 var7 var6 var5 var4 var3 var2 var1 var0) (not (is-O_Int (read var8 (nthAddrRange var5 var2))))))))
(assert (forall ((var0 Int) (var1 Int) (var2 Int) (var3 Int) (var4 Int) (var5 AddrRange) (var6 Int) (var7 AddrRange) (var8 Heap)) (not (and (inv_main26 var8 var7 var6 var5 var4 var3 var2 var1 var0) (and (is-O_Int (read var8 (nthAddrRange var5 var2))) (not (within var5 (nthAddrRange var5 var2))))))))
(assert (forall ((var0 Int) (var1 Int) (var2 Int) (var3 Int) (var4 Int) (var5 AddrRange) (var6 Int) (var7 AddrRange) (var8 Heap)) (not (and (inv_main26 var8 var7 var6 var5 var4 var3 var2 var1 var0) (and (is-O_Int (read var8 (nthAddrRange var5 var2))) (not (is-O_Int (read var8 (nthAddrRange var5 var2)))))))))
(assert (forall ((var0 Int) (var1 AddrRange) (var2 Int) (var3 AddrRange) (var4 Heap)) (not (and (inv_main29 var4 var3 var2 var1 var0) (not (is-O_Int (read var4 (nthAddrRange var1 var0))))))))
(assert (forall ((var0 Int) (var1 AddrRange) (var2 Int) (var3 AddrRange) (var4 Heap)) (not (and (inv_main29 var4 var3 var2 var1 var0) (not (within var1 (nthAddrRange var1 var0)))))))
(assert (forall ((var0 Int) (var1 AddrRange) (var2 Int) (var3 AddrRange) (var4 Heap)) (not (and (inv_main29 var4 var3 var2 var1 var0) (not (is-O_Int (read var4 (nthAddrRange var1 var0))))))))
(assert (forall ((var0 Int) (var1 AddrRange) (var2 Int) (var3 AddrRange) (var4 Heap)) (not (and (inv_main29 var4 var3 var2 var1 var0) (and (is-O_Int (read var4 (nthAddrRange var1 var0))) (not (within var1 (nthAddrRange var1 var0))))))))
(assert (forall ((var0 Int) (var1 AddrRange) (var2 Int) (var3 AddrRange) (var4 Heap)) (not (and (inv_main29 var4 var3 var2 var1 var0) (and (is-O_Int (read var4 (nthAddrRange var1 var0))) (not (= (getInt (read var4 (nthAddrRange var1 var0))) var0)))))))
(check-sat)
